n = 50;
capacity = 100;
size = [80, 80, 79, 78, 77, 74, 69, 69, 68, 68, 66, 65, 65, 61, 60, 59, 59, 56, 56, 55, 54, 53, 51, 50, 49, 49, 48, 48, 48, 43, 41, 41, 41, 40, 39, 38, 37, 36, 34, 32, 31, 30, 30, 29, 27, 26, 25, 23, 23, 21];
